c description: Random 2-CNF over 15 variables and 45 clauses
c generator: CNFgen (0.9.0)
c copyright: (C) 2012-2020 Massimo Lauria <massimo.lauria@uniroma1.it>
c url: https://massimolauria.net/cnfgen
c
p cnf 15 45
-4 -9 0
6 -9 0
1 12 0
-13 14 0
-4 -5 0
4 -11 0
1 8 0
-9 15 0
-7 -8 0
-2 14 0
-3 -10 0
-8 -12 0
12 14 0
8 11 0
4 -15 0
4 -13 0
6 -13 0
-1 -8 0
2 -15 0
-8 -15 0
8 -13 0
-6 13 0
-3 -12 0
4 6 0
4 7 0
-9 -10 0
-5 -10 0
2 3 0
-1 8 0
1 -8 0
2 12 0
-2 -13 0
-4 -12 0
1 6 0
3 -15 0
3 4 0
-4 15 0
5 -13 0
-5 -7 0
-11 -12 0
-7 15 0
7 11 0
7 13 0
6 -11 0
-2 7 0